%chk=benzene-pol.chk
# Polar PW91PW91/6-31G**

        Benzene Static Polarizability

0 1
C        0.259919   -1.377103    0.000000
C       -1.062659   -0.913644   -0.000000
C       -1.322574    0.463456    0.000000
C       -0.259919    1.377103   -0.000000
C        1.062659    0.913644    0.000000
C        1.322574   -0.463456   -0.000000
H        0.462600   -2.450804    0.000000
H       -1.891178   -1.626013   -0.000000
H       -2.353766    0.824783    0.000000
H       -0.462600    2.450804   -0.000000
H        1.891178    1.626013    0.000000
H        2.353766   -0.824783   -0.000000
